Using license file /home/anup/gurobi.lic
Academic license - for non-commercial use only
Changed value of parameter NonConvex to 2
   Prev: -1  Min: -1  Max: 2  Default: -1
Parameter NonConvex unchanged
   Value: 2  Min: -1  Max: 2  Default: -1

Gurobi Optimizer version 9.0.0 build v9.0.0rc2 (linux64)
Optimize a model with 38 rows, 56 columns and 103 nonzeros
Model fingerprint: 0xc546f212
Model has 6 quadratic constraints
Model has 5 general constraints
Variable types: 40 continuous, 16 integer (12 binary)
Coefficient statistics:
  Matrix range     [1e-04, 3e+04]
  QMatrix range    [1e+00, 1e+00]
  QLMatrix range   [1e+00, 1e+00]
  Objective range  [1e+00, 1e+00]
  Bounds range     [1e+00, 3e+04]
  RHS range        [1e+00, 5e+01]

---------------------------------------------------------------------------
Multi-objectives: starting optimization with 2 objectives ... 
---------------------------------------------------------------------------

Multi-objectives: applying initial presolve ...
---------------------------------------------------------------------------

Presolve added 0 rows and 10 columns
Presolve removed 4 rows and 0 columns
Presolve time: 0.00s
Presolved: 58 rows and 67 columns
---------------------------------------------------------------------------

Multi-objectives: optimize objective 1 (ns) ...
---------------------------------------------------------------------------

Presolve removed 8 rows and 6 columns
Presolve time: 0.00s
Presolved: 74 rows, 62 columns, 210 nonzeros
Presolved model has 6 SOS constraint(s)
Presolved model has 6 bilinear constraint(s)
Variable types: 34 continuous, 28 integer (22 binary)

Root relaxation: objective 1.020408e+01, 25 iterations, 0.00 seconds

    Nodes    |    Current Node    |     Objective Bounds      |     Work
 Expl Unexpl |  Obj  Depth IntInf | Incumbent    BestBd   Gap | It/Node Time

     0     0   10.20408    0   10          -   10.20408      -     -    0s
     0     0   10.20408    0   13          -   10.20408      -     -    0s
     0     0   10.20408    0   13          -   10.20408      -     -    0s
     0     0   10.20408    0   13          -   10.20408      -     -    0s
     0     0   10.20408    0   10          -   10.20408      -     -    0s
     0     0   10.20408    0   12          -   10.20408      -     -    0s
     0     0   10.20408    0   12          -   10.20408      -     -    0s
     0     0   10.20408    0   12          -   10.20408      -     -    0s
H    0     0                      17.8571429   10.20408  42.9%     -    0s
     0     2   10.20935    0   14   17.85714   10.20935  42.8%     -    0s

Cutting planes:
  Cover: 2
  Implied bound: 1
  MIR: 3
  Flow cover: 3
  RLT: 3
  Relax-and-lift: 1

Explored 7 nodes (152 simplex iterations) in 0.02 seconds
Thread count was 8 (of 8 available processors)

Solution count 1: 17.8571 

Optimal solution found (tolerance 1.00e-04)
Best objective 1.785714285714e+01, best bound 1.785714285714e+01, gap 0.0000%
---------------------------------------------------------------------------

Multi-objectives: optimize objective 2 (res) ...
---------------------------------------------------------------------------


Loaded user MIP start with objective 168.865

Presolve removed 8 rows and 7 columns
Presolve time: 0.00s
Presolved: 75 rows, 60 columns, 232 nonzeros
Presolved model has 6 bilinear constraint(s)
Found heuristic solution: objective 155.1293821
Variable types: 33 continuous, 27 integer (21 binary)

Root relaxation: objective 5.677757e+01, 49 iterations, 0.00 seconds

    Nodes    |    Current Node    |     Objective Bounds      |     Work
 Expl Unexpl |  Obj  Depth IntInf | Incumbent    BestBd   Gap | It/Node Time

     0     0   56.77757    0   15  155.12938   56.77757  63.4%     -    0s
     0     0   58.02560    0   16  155.12938   58.02560  62.6%     -    0s
     0     0   66.70844    0   16  155.12938   66.70844  57.0%     -    0s
H    0     0                     105.5786905   66.70844  36.8%     -    0s
     0     0   67.03327    0   16  105.57869   67.03327  36.5%     -    0s
     0     0   82.60594    0   19  105.57869   82.60594  21.8%     -    0s
     0     0   84.00874    0   12  105.57869   84.00874  20.4%     -    0s
     0     0   84.68548    0   16  105.57869   84.68548  19.8%     -    0s
     0     0   86.00178    0   16  105.57869   86.00178  18.5%     -    0s
     0     0   86.24804    0   18  105.57869   86.24804  18.3%     -    0s
     0     0   86.27941    0   19  105.57869   86.27941  18.3%     -    0s
     0     0   86.94917    0   17  105.57869   86.94917  17.6%     -    0s
     0     0   86.94917    0   18  105.57869   86.94917  17.6%     -    0s
     0     0   89.53314    0   15  105.57869   89.53314  15.2%     -    0s
     0     0   89.54167    0   19  105.57869   89.54167  15.2%     -    0s
     0     0   89.68619    0   21  105.57869   89.68619  15.1%     -    0s
     0     0   89.69918    0   21  105.57869   89.69918  15.0%     -    0s
     0     0   89.79254    0   21  105.57869   89.79254  15.0%     -    0s
     0     0   89.79254    0   21  105.57869   89.79254  15.0%     -    0s
     0     0   89.79254    0   21  105.57869   89.79254  15.0%     -    0s
H    0     0                     105.1293821   89.79254  14.6%     -    0s
     0     2   89.79254    0   21  105.12938   89.79254  14.6%     -    0s
*    3     0               2     105.1254759  104.92447  0.19%  23.0    0s

Cutting planes:
  Implied bound: 3
  MIR: 4
  StrongCG: 1
  Flow cover: 3
  GUB cover: 1
  Relax-and-lift: 2

Explored 6 nodes (311 simplex iterations) in 0.07 seconds
Thread count was 8 (of 8 available processors)

Solution count 5: 105.125 105.129 105.579 ... 168.865

Optimal solution found (tolerance 1.00e-04)
Best objective 1.051254758835e+02, best bound 1.051254758835e+02, gap 0.0000%

---------------------------------------------------------------------------
Multi-objectives: solved in 0.07 seconds, solution count 5

--------------------------------------------------
Model update took: 3.266334533691406e-05 seconds
Model optimize took: 0.0704655647277832 seconds
--------------------------------------------------

Solution quality statistics for model netmon :
  Maximum violation:
    Bound       : 0.00000000e+00
    Constraint  : 8.88178420e-16
    Integrality : 0.00000000e+00

Throughput: 56.0 Mpps, ns per packet: 17.857142857142858
Resources: 105.12547588348389

Sketch (0) (cm: eps0: 7.500000000000001e-05, del0: 0.05, min_mem: 141.578125)
Par: 1, Rows: 3
-0.000    -0.000    0.000    1.000    
Total frac: 1.000

Sketch (1) (cm: eps0: 1.25e-06, del0: 0.05, min_mem: 8494.6328125)
Par: 1, Rows: 3
1.000    -0.000    0.000    0.000    
Total frac: 1.000

Sketch (2) (cm: eps0: 0.000625, del0: 0.025, min_mem: 16.9921875)
Par: 1, Rows: 4
-0.000    -0.000    0.000    1.000    
Total frac: 1.000

Device (0) cpu_1:
cores_sketch: 5.0, cores_dpdk: 2.0
Rows total: 3.0
Mem total: 25483.8984375
Throughput: 56.0

Device (1) cpu_2:
cores_sketch: 0.0, cores_dpdk: 2.0
Rows total: 0.0
Mem total: 0.0
Throughput: 56.0

Device (2) p4_1:
Rows total: 0.0
Mem total: 0.0
Throughput: 148.0

Device (3) p4_2:
Rows total: 7.0
Mem total: 492.703125
Throughput: 148.0
--------------------------------------------------
